=obj= -181
C0001 0
C0002 0
C0003 3
C0004 0
C0005 4
C0006 0
C0007 0
C0008 0
C0009 0
C0010 0
C0011 0
C0012 0
C0013 0
C0014 0
C0015 1
C0016 0
C0017 0
C0018 0
C0019 0
C0020 0
C0021 0
C0022 0
C0023 0
C0024 0
C0025 0
C0026 3.666666667
C0027 0
C0028 1.666666667
C0029 0
C0030 0
C0031 0
C0032 0
C0033 4
C0034 3
C0035 0
C0036 0
C0037 0
C0038 0
C0039 0
C0040 0
C0041 0
C0042 0
C0043 0
C0044 0
C0045 0
C0046 0
C0047 4
C0048 3
C0049 0
C0050 0
C0051 0
C0052 0
C0053 0
C0054 0
C0055 0
C0056 0
C0057 0
C0058 4
C0059 0
C0060 1.333333333
C0061 0
C0062 0
C0063 0
C0064 0
C0065 0
C0066 1.333333333
C0067 0.3333333333
C0068 0
C0069 0
C0070 0
C0071 0
C0072 4
C0073 0
C0074 1.333333333
C0075 0
C0076 0
C0077 0
C0078 -2.36848e-17
C0079 0
C0080 1.333333333
C0081 0
C0082 0
C0083 0
C0084 0
C0085 3
C0086 0
C0087 0
C0088 0
C0089 0
C0090 0
C0091 0
C0092 -2.03012e-17
C0093 0
C0094 0
C0095 0
C0096 0
C0097 4
C0098 0
C0099 3
C0100 0
C0101 0
C0102 0
C0103 0
C0104 0
C0105 0
C0106 -2.03012e-17
C0107 0
C0108 0
C0109 0
C0110 0
C0111 4
C0112 0
C0113 0
C0114 0
C0115 0
C0116 0
C0117 0
C0118 0
C0119 0
C0120 0
C0121 0
C0122 0
C0123 3
C0124 0
C0125 4
C0126 0
C0127 0
C0128 0
C0129 0
C0130 0
C0131 0
C0132 0
C0133 4
C0134 0
C0135 0
C0136 3
C0137 0
C0138 0
C0139 0
C0140 0
C0141 0
C0142 0
C0143 0
C0144 0
C0145 3
C0146 0
C0147 0
C0148 4
C0149 0
C0150 0
C0151 0
C0152 0
C0153 0
C0154 0
C0155 4
C0156 0
C0157 0
C0158 0
C0159 0
C0160 0
C0161 0
C0162 0
C0163 3
C0164 0
C0165 0
C0166 0
C0167 0
C0168 0
C0169 0
C0170 0
C0171 0
C0172 0
C0173 0
C0174 0
C0175 0
C0176 -1.7401e-17
C0177 3.333333333
C0178 0
C0179 3.666666667
C0180 0
C0181 0
C0182 0
C0183 0
C0184 0
C0185 4
C0186 1.333333333
C0187 0
C0188 0
C0189 0
C0190 -1.30508e-17
C0191 0
C0192 1.333333333
C0193 0
C0194 0.3333333333
C0195 0
C0196 0
C0197 0
C0198 0
C0199 0
C0200 1.333333333
C0201 0
C0202 1
C0203 3.333333333
C0204 -1.97373e-17
C0205 0
C0206 1.333333333
C0207 0
C0208 0
C0209 0
C0210 0
C0211 0
C0212 0
C0213 0
C0214 0
C0215 0
C0216 0
C0217 0
C0218 -5.54402e-18
C0219 4
C0220 0
C0221 3
C0222 0
C0223 0
C0224 0
C0225 0
C0226 0
C0227 -1.58603e-17
C0228 -1.47274e-17
C0229 -1.36755e-17
C0230 -1.26987e-17
C0231 -1.17916e-17
C0232 -1.09494e-17
C0233 4
C0234 -9.44103e-18
C0235 3
C0236 -8.14048e-18
C0237 -7.55902e-18
C0238 0
C0239 0
C0240 -2.77556e-17
C0241 0
C0242 0
C0243 0
C0244 0
C0245 0.6666666667
C0246 4
C0247 0
C0248 0
C0249 0
C0250 0
C0251 0
C0252 2.333333333
C0253 0
C0254 0
C0255 0
C0256 0
C0257 4
C0258 3
C0259 0
C0260 0
C0261 0
C0262 0
C0263 0
C0264 0
C0265 0
C0266 -6.68206e-18
C0267 0
C0268 0
C0269 0
C0270 2.666666667
C0271 0
C0272 0
C0273 0.6666666667
C0274 0
C0275 0
C0276 0
C0277 0
C0278 3.666666667
C0279 0
C0280 0
C0281 0
C0282 0
C0283 3
C0284 0
C0285 0
C0286 0
C0287 4.88498e-15
C0288 2.02106e-15
C0289 1.8767e-15
C0290 1.74265e-15
C0291 4.88498e-15
C0292 2.69668e-15
C0293 4
C0294 2.50406e-15
C0295 0
C0296 0
C0297 3
C0298 4.88498e-15
C0299 4.88498e-15
C0300 4
C0301 2.92283e-15
C0302 2.71406e-15
C0303 2.5202e-15
C0304 2.34018e-15
C0305 0
C0306 2.17303e-15
C0307 2.01781e-15
C0308 1.87368e-15
C0309 4
C0310 0
C0311 0
C0312 0
C0313 3
C0314 0
C0315 0
C0316 0
C0317 0
C0318 0
C0319 0
C0320 0
C0321 0
C0322 0
C0323 4.88498e-15
C0324 1.71292e-15
C0325 1.59056e-15
C0326 1.47695e-15
C0327 4.88498e-15
C0328 2.44996e-15
C0329 2.27496e-15
C0330 3
C0331 4
C0332 1.96157e-15
C0333 1.82146e-15
C0334 1.69136e-15
C0335 1.57055e-15
C0336 1.45836e-15
C0337 0
C0338 0
C0339 0
C0340 0
C0341 0
C0342 0
C0343 3
C0344 0
C0345 0
C0346 0
C0347 4
C0348 0
C0349 0
C0350 0
C0351 0
C0352 0
C0353 0
C0354 3
C0355 4
C0356 0
C0357 0
C0358 0
C0359 0
C0360 0
C0361 0
C0362 0
C0363 0
C0364 0
C0365 0
C0366 0
C0367 1
C0368 0
C0369 1
C0370 1
C0371 1
C0372 1
C0373 0
C0374 0
C0375 0
C0376 0
C0377 0
C0378 0
C0379 1
C0380 0
C0381 0
C0382 0
C0383 0
C0384 0
C0385 0
C0386 0
C0387 0
C0388 0
C0389 0
C0390 1
C0391 0
C0392 1
C0393 0
C0394 0
C0395 1
C0396 0
C0397 1
C0398 1
C0399 0
C0400 0
C0401 0
C0402 0
C0403 0
C0404 0
C0405 0
C0406 0
C0407 0
C0408 0
C0409 0
C0410 0
C0411 1
C0412 1
C0413 1
C0414 1
C0415 0
C0416 0
C0417 0
C0418 0
C0419 0
C0420 0
C0421 0
C0422 1
C0423 0
C0424 1
C0425 0
C0426 0
C0427 0
C0428 1
C0429 0
C0430 1
C0431 1
C0432 0
C0433 0
C0434 0
C0435 0
C0436 1
C0437 0
C0438 1
C0439 0
C0440 0
C0441 0
C0442 0
C0443 0
C0444 1
C0445 0
C0446 0
C0447 0
C0448 0
C0449 1
C0450 0
C0451 0
C0452 0
C0453 0
C0454 0
C0455 0
C0456 0
C0457 0
C0458 0
C0459 0
C0460 0
C0461 1
C0462 1
C0463 1
C0464 0
C0465 0
C0466 0
C0467 0
C0468 0
C0469 0
C0470 0
C0471 0
C0472 0
C0473 0
C0474 0
C0475 1
C0476 0
C0477 1
C0478 1
C0479 1
C0480 1
C0481 0
C0482 1
C0483 0
C0484 0
C0485 1
C0486 0
C0487 1
C0488 1
C0489 1
C0490 1
C0491 0
C0492 0
C0493 0
C0494 0
C0495 0
C0496 0
C0497 1
C0498 0
C0499 0
C0500 1
C0501 0
C0502 0
C0503 0
C0504 0
C0505 0
C0506 0
C0507 0
C0508 0
C0509 1
C0510 0
C0511 0
C0512 1
C0513 0
C0514 0
C0515 0
C0516 0
C0517 0
C0518 0
C0519 1
C0520 1
C0521 1
C0522 1
C0523 0
C0524 1
C0525 1
C0526 0
C0527 1
C0528 1
C0529 1
C0530 1
C0531 1
C0532 1
C0533 0
C0534 0
C0535 0
C0536 0
C0537 0
C0538 0
C0539 0
C0540 0
C0541 1
C0542 0
C0543 1
C0544 0
C0545 1
C0546 0
C0547 0
C0548 0
C0549 1
C0550 1
C0551 0
C0552 0
C0553 0
C0554 0
C0555 0
C0556 1
C0557 0
C0558 1
C0559 0
C0560 0
C0561 0
C0562 0
C0563 0
C0564 1
C0565 0
C0566 1
C0567 1
C0568 0
C0569 0
C0570 1
C0571 0
C0572 0
C0573 0
C0574 0
C0575 1
C0576 0
C0577 0
C0578 0
C0579 1
C0580 0
C0581 0
C0582 1
C0583 1
C0584 0
C0585 1
C0586 0
C0587 1
C0588 0
C0589 0
C0590 1
C0591 0
C0592 0
C0593 0
C0594 0
C0595 0
C0596 0
C0597 1
C0598 0
C0599 1
C0600 0
C0601 0
C0602 1
C0603 0
C0604 0
C0605 0
C0606 0
C0607 0
C0608 0
C0609 1
C0610 1
C0611 0
C0612 0
C0613 0
C0614 0
C0615 0
C0616 1
C0617 0
C0618 0
C0619 0
C0620 0
C0621 1
C0622 1
C0623 0
C0624 1
C0625 0
C0626 0
C0627 0
C0628 0
C0629 1
C0630 0
C0631 0
C0632 0
C0633 0
C0634 1
C0635 0
C0636 0
C0637 1
C0638 0
C0639 0
C0640 1
C0641 0
C0642 1
C0643 0
C0644 0
C0645 1
C0646 1
C0647 1
C0648 1
C0649 1
C0650 1
C0651 0
C0652 1
C0653 1
C0654 1
C0655 0
C0656 1
C0657 1
C0658 1
C0659 1
C0660 1
C0661 1
C0662 0
C0663 0
C0664 1
C0665 1
C0666 1
C0667 1
C0668 1
C0669 1
C0670 1
C0671 1
C0672 1
C0673 1
C0674 0
C0675 0
C0676 0
C0677 1
C0678 0
C0679 0
C0680 0
C0681 0
C0682 0
C0683 0
C0684 0
C0685 0
C0686 0
C0687 0
C0688 1
C0689 1
C0690 1
C0691 0
C0692 1
C0693 1
C0694 1
C0695 1
C0696 1
C0697 1
C0698 1
C0699 1
C0700 1
C0701 0
C0702 0
C0703 0
C0704 0
C0705 0
C0706 0
C0707 1
C0708 0
C0709 0
C0710 0
C0711 1
C0712 0
C0713 0
C0714 0
C0715 0
C0716 0
C0717 0
C0718 1
C0719 1
C0720 0
C0721 0
C0722 0
C0723 0
C0724 0
C0725 0
C0726 0
C0727 0
C0728 0
